0 0 0 0
0 1 0 0
0 2 1 0
0 3 1 0
0 4 0 3
0 5 1 3
0 6 0 3
0 7 0 6
0 8 0 13
0 9 0 6
0 10 0 4
0 11 1 8
0 12 0 11
0 13 1 16
0 14 0 9
0 15 0 11
0 16 0 5
0 17 0 21
0 18 0 13
0 19 0 13
0 20 1 18
0 21 2 23
0 22 0 21
0 23 0 23
0 24 1 14
0 25 0 17
0 26 0 28
0 27 0 20
0 28 0 29
0 29 1 23
0 30 1 27
0 31 0 32
